# created by fftool
tolerance 2.0
filetype xyz
output simbox.xyz

structure choline_pack.xyz
  number 48
  inside box 1.5000 1.5000 1.5000 33.8100 33.8100 33.8100
end structure

structure octanoate_pack.xyz
  number 51
  inside box 1.5000 1.5000 1.5000 33.8100 33.8100 33.8100
end structure

structure spce_pack.xyz
  number 192
  inside box 1.5000 1.5000 1.5000 33.8100 33.8100 33.8100
end structure

structure nd_pack.xyz
  number 1
  inside box 1.5000 1.5000 1.5000 33.8100 33.8100 33.8100
end structure
