# created by fftool
tolerance 2.0
filetype xyz
output simbox.xyz

structure diethanolammonium_pack.xyz
  number 72
  inside box 1.5000 1.5000 1.5000 34.8800 34.8800 34.8800
end structure

structure acetate_pack.xyz
  number 75
  inside box 1.5000 1.5000 1.5000 34.8800 34.8800 34.8800
end structure

structure spce_pack.xyz
  number 288
  inside box 1.5000 1.5000 1.5000 34.8800 34.8800 34.8800
end structure

structure nd_pack.xyz
  number 1
  inside box 1.5000 1.5000 1.5000 34.8800 34.8800 34.8800
end structure
