# created by fftool
tolerance 2.0
filetype xyz
output simbox.xyz

structure ethanolammonium_pack.xyz
  number 98
  inside box 1.5000 1.5000 1.5000 36.1300 36.1300 36.1300
end structure

structure acetate_pack.xyz
  number 101
  inside box 1.5000 1.5000 1.5000 36.1300 36.1300 36.1300
end structure

structure spce_pack.xyz
  number 392
  inside box 1.5000 1.5000 1.5000 36.1300 36.1300 36.1300
end structure

structure nd_pack.xyz
  number 1
  inside box 1.5000 1.5000 1.5000 36.1300 36.1300 36.1300
end structure
