# created by fftool
tolerance 2.0
filetype xyz
output simbox.xyz

structure butylammonium_pack.xyz
  number 55
  inside box 1.5000 1.5000 1.5000 34.2400 34.2400 34.2400
end structure

structure octanoate_pack.xyz
  number 58
  inside box 1.5000 1.5000 1.5000 34.2400 34.2400 34.2400
end structure

structure spce_pack.xyz
  number 220
  inside box 1.5000 1.5000 1.5000 34.2400 34.2400 34.2400
end structure

structure nd_pack.xyz
  number 1
  inside box 1.5000 1.5000 1.5000 34.2400 34.2400 34.2400
end structure
